1303880
66,47,57,33,9,70,1,32,68,36,50,88,42,97,35,27,2,53,91,44,55,93,60,31,10,20,21,96,13,63,45,81,4,7,86,39,73,22,84,79,29,59,90,52,65,11,23,54,34,71,98,28,46,5,64,3,85,89,8,72,6,69,41,75,18,30,49,62,56,77,74,48,37,80,99,38,76,61,16,58,82,67,15,83,87,14,92,43,24,19,12,40,94,26,17,51,78,25,95